23
495 474 
473 472 
466 450 
445 444 
439 430 
419 414 
410 395 
372 370 258 
366 366 268 
366 363 271 
361 357 275 
355 351 292 
350 350 299 
347 320 315 
307 303 298 
298 288 287 
283 275 274 
273 273 272 
272 269 269 
263 262 261 
259 255 254 
252 252 252 
251 
